=obj=                0
v10                  0
v11                  0
v12                  0
v13                  0
v14                  1
v15                  0
v16                  0
v17                  0
v18                  0
v19                  0
v20                  0
v21                  1
v22                  0
v23                  0
v24                  0
v25                  0
v26                  1
v27                  0
v28                  0
v29                  0
v30                  0
v31                  1
v32                  0
v33                  0
v34                  0
v35                  0
v36                  0
v37                  0
v38                  1
v39                  0
v40                  0
v41                  1.00000000000001
v42                  0
v43                  0
v44                  0
v45                  0
v46                  1.00000000000001
v47                  0
v48                  0
v49                  0
v50                  0
v51                  0
v52                  0
v53                  0
v54                  0
v55                  0
v56                  0
v57                  1
v58                  0
v59                  0
v60                  0
v61                  0
v62                  0
v63                  1
v64                  0
v65                  0
v66                  0
v67                  0
v68                  0
v69                  0
v70                  1
v71                  0
v72                  0
v73                  0
v74                  0
v75                  0
v76                  1
v77                  0
v78                  0
v79                  0
v80                  1
v81                  0
v82                  0
v83                  0
v84                  0
v85                  0
v86                  0
v87                  1
v88                  0
v89                  0
v90                  0
v91                  0
v92                  0
v93                  1
v94                  0
v95                  0
v96                  0
v97                  0
v98                  1
v99                  0
v1000                0
v1001                0.999999999999994
v1002                0
v1003                0
v1004                0
v1005                0
v1006                0
v1007                0
v1008                0
v1009                0
v1010                0
v1011                0
v1012                0
v1013                0
v1014                0
v1015                0
v1016                0
v1017                0
v1018                0
v1019                0
v1020                0
v1021                0
v1022                1.00000000000001
v1023                0
v1024                0
v1025                0
v1026                0
v1027                0
v1028                0
v1029                1
v1030                0
v1031                0
v1032                0
v1033                0
v1034                0
v1035                0
v1036                0
v1037                0
v1038                0
v1039                0
v1040                0
v1041                0
v1042                0
v1043                0
v1044                0
v1045                0
v1046                0
v1047                0
v1048                0
v1049                0
v1050                0
v1051                0
v1052                0
v1053                0
v1054                1
v1055                0
v1056                0
v1057                0
v1058                0
v1059                0
v1060                0
v1061                0
v1062                0
v1063                0
v1064                0
v1065                0
v1066                0
v1067                0
v1068                0
v1069                0
v1070                0
v1071                0
v1072                0
v1073                0
v1074                0
v1075                0
v1076                0
v1077                0
v1078                0
v1079                1
v1080                0
v1081                0
v1082                0
v1083                0
v1084                0
v1085                0
v1086                0
v1087                0
v1088                0
v1089                0
v1090                0
v1091                0
v1092                0
v1093                1
v1094                1
v1095                0
v1096                0
v1097                0
v1098                0
v1099                0
v1100                0
v1101                0
v1102                0
v1103                0
v1104                0
v1105                0
v1106                0
v1107                0
v1108                0
v1109                0
v1110                0
v1111                0
v1112                0
v1113                0
v1114                0
v1115                0
v1116                0
v1117                0
v1118                0
v1119                0
v1120                1
v1121                0
v1122                0
v1123                0
v1124                0
v1125                0
v1126                0
v1127                0
v1128                0
v1129                0
v1130                0
v1131                0
v1132                0
v1133                0
v1134                0
v1135                0
v1136                0
v1137                0
v1138                0
v1139                0
v1140                0
v1141                0
v1142                0
v1143                0
v1144                0
v1145                0
v1146                1
v1147                0
v1148                0
v1149                0
v1150                0
v1151                0
v1152                0
v1153                0
v1154                0
v1155                0
v1156                0
v1157                1.00000000000001
v1158                0
v1159                0
v1160                0
v1161                0
v1162                0
v1163                0
v1164                1.00000000000001
v1165                0
v1166                0
v1167                0
v1168                0
v1169                0
v1170                0
v1171                0
v1172                0
v1173                0
v1174                0
v1175                0
v1176                0
v1177                0
v1178                0
v1179                0
v1180                0
v1181                0
v1182                0
v1183                0
v1184                0
v1185                0
v1186                0
v1187                0
v1188                0
v1189                0
v1190                0
v1191                0
v1192                0
v1193                0
v1194                0
v1195                0
v1196                0
v1197                1
v1198                0
v1199                0
v1                   0
v2                   0
v3                   0
v4                   0
v5                   0
v6                   0
v7                   0
v8                   1
v9                   0
v1200                0
v1201                0
v1202                0
v1203                0
v1204                0
v1205                0
v1206                0
v1207                1.00000000000001
v1208                0
v1209                0
v1210                0
v1211                0
v1212                0
v1213                0
v1214                0
v1215                0
v1216                0
v1217                0
v1218                0
v1219                0
v1220                0
v1221                0
v1222                0
v1223                0
v1224                0
v1225                1
v1226                0
v1227                0
v1228                0
v1229                0
v1230                0
v1231                0
v1232                0
v1233                0
v1234                0
v1235                0
v1236                0
v1237                0
v1238                0
v1239                0
v1240                1
v1241                0
v1242                0
v1243                0
v1244                1
v1245                0
v1246                0
v1247                0
v1248                0
v1249                0
v1250                0
v1251                0
v1252                0
v1253                0
v1254                0
v1255                0
v1256                0
v1257                0
v1258                0
v1259                0
v1260                0
v1261                0
v1262                0
v1263                0
v1264                0
v1265                0
v1266                0
v1267                1.00000000000001
v1268                0
v1269                0
v1270                0
v1271                0
v1272                0
v1273                0
v1274                0
v1275                0
v1276                0
v1277                0
v1278                1.00000000000001
v1279                0
v1280                0
v1281                0
v1282                0
v1283                0
v1284                0
v1285                0
v1286                0
v1287                1
v1288                0
v1289                0
v1290                0
v1291                0
v1292                0
v1293                0
v1294                0
v1295                0
v1296                0
v1297                0
v1298                0
v1299                0
v1300                0
v1301                0
v1302                0
v1303                0
v1304                0
v1305                0
v1306                1
v1307                0
v1308                0
v1309                0
v1310                0
v1311                0
v1312                0
v1313                0
v1314                0
v1315                0
v1316                0
v1317                0
v1318                0
v1319                0
v1320                0
v1321                0
v1322                0.999999999999969
v1323                0
v1324                0
v1325                0
v1326                0
v1327                0
v1328                0
v1329                0
v1330                0
v1331                0
v1332                0
v1333                0.999999999999996
v1334                0
v1335                0
v100                 0
v101                 0
v102                 0
v103                 0
v104                 1
v105                 1.00000000000001
v106                 1.00000000000001
v107                 0
v108                 0.999999999999996
v109                 0.999999999999985
v110                 0
v111                 1
v112                 1
v113                 0
v114                 0
v115                 0
v116                 1
v117                 0
v118                 1
v119                 1
v120                 0
v121                 0
v122                 1
v123                 0
v124                 0
v125                 0.999999999999997
v126                 0
v127                 0
v128                 0
v129                 1
v130                 0
v131                 0
v132                 1
v133                 1
v134                 0
v135                 1
v136                 1
v137                 0
v138                 0
v139                 1
v140                 0
v141                 1
v142                 0
v143                 1
v144                 0
v145                 1
v146                 0
v147                 0
v148                 1
v149                 0
v150                 1
v151                 0
v152                 0
v153                 0
v154                 0
v155                 1
v156                 1
v157                 1
v158                 1
v159                 0
v160                 0.999999999999988
v161                 1.00000000000001
v162                 1
v163                 0
v164                 1
v165                 0
v166                 0
v167                 0
v168                 1
v169                 1.00000000000001
v170                 0
v171                 0
v172                 0.999999999999988
v173                 0
v174                 0
v175                 0
v176                 0
v177                 1
v178                 0
v179                 0
v180                 1
v181                 1
v182                 0
v183                 0.999999999999993
v184                 0
v185                 0
v186                 1
v187                 0
v188                 0
v189                 1
v190                 0
v191                 0.999999999999994
v192                 0
v193                 1
v194                 0
v195                 0
v196                 1
v197                 0
v198                 0
v199                 1
v200                 1
v201                 0
v202                 0.999999999999988
v203                 1
v204                 1
v205                 0
v206                 1
v207                 0
v208                 0
v209                 0
v210                 1
v211                 0
v212                 0
v213                 0
v214                 1
v215                 0
v216                 1
v217                 0
v218                 1
v219                 0
v220                 1.00000000000001
v221                 0
v222                 1.00000000000001
v223                 1
v224                 0
v225                 1
v226                 0
v227                 0
v228                 0
v229                 0
v230                 1.00000000000001
v231                 0
v232                 1
v233                 1
v234                 1
v235                 0
v236                 0
v237                 1
v238                 1
v239                 0
v240                 0
v241                 0
v242                 0
v243                 0
v244                 0
v245                 0
v246                 0
v247                 0
v248                 0
v249                 0
v250                 0.999999999999985
v251                 0
v252                 0
v253                 0
v254                 0
v255                 0
v256                 0
v257                 0
v258                 0
v259                 0
v260                 0
v261                 0
v262                 0
v263                 0
v264                 0
v265                 0
v266                 0
v267                 0
v268                 0
v269                 0
v270                 0
v271                 0
v272                 0
v273                 1
v274                 0
v275                 0
v276                 0
v277                 0
v278                 0
v279                 0
v280                 0
v281                 0
v282                 0
v283                 0
v284                 0
v285                 0
v286                 0
v287                 0
v288                 0
v289                 0
v290                 0
v291                 0
v292                 0
v293                 0
v294                 1
v295                 0
v296                 0
v297                 0
v298                 0
v299                 1
v300                 0
v301                 0
v302                 0
v303                 0
v304                 0
v305                 0
v306                 0
v307                 0
v308                 0
v309                 0
v310                 0
v311                 0
v312                 0
v313                 0
v314                 0
v315                 0
v316                 0
v317                 0
v318                 0
v319                 0
v320                 0
v321                 0
v322                 0
v323                 0
v324                 0
v325                 0
v326                 0
v327                 0
v328                 0
v329                 0
v330                 0
v331                 1
v332                 0
v333                 0
v334                 1
v335                 0
v336                 0
v337                 0
v338                 0
v339                 0
v340                 0
v341                 0
v342                 0
v343                 0
v344                 0
v345                 0
v346                 0
v347                 0
v348                 0
v349                 0
v350                 0.999999999999986
v351                 0
v352                 0
v353                 0
v354                 0
v355                 0
v356                 0
v357                 0
v358                 0
v359                 0
v360                 1
v361                 0
v362                 0
v363                 0
v364                 0
v365                 0
v366                 0
v367                 0
v368                 0
v369                 0
v370                 0
v371                 0
v372                 0
v373                 0
v374                 0
v375                 0
v376                 0
v377                 0
v378                 1.00000000000001
v379                 0
v380                 0
v381                 0
v382                 0
v383                 0
v384                 0
v385                 0
v386                 0
v387                 0
v388                 0
v389                 1
v390                 0
v391                 0
v392                 0
v393                 0
v394                 0
v395                 0
v396                 0
v397                 0
v398                 0
v399                 0
v400                 0
v401                 1
v402                 0
v403                 0
v404                 0
v405                 0
v406                 0
v407                 0
v408                 0
v409                 0
v410                 0
v411                 0
v412                 0.999999999999999
v413                 0
v414                 0
v415                 0
v416                 0
v417                 0
v418                 0
v419                 0
v420                 0
v421                 0
v422                 0
v423                 0
v424                 0
v425                 0
v426                 0
v427                 0
v428                 0
v429                 0
v430                 0
v431                 0.999999999999996
v432                 0
v433                 0
v434                 0
v435                 0
v436                 0
v437                 0
v438                 0
v439                 0
v440                 0
v441                 0
v442                 0
v443                 0
v444                 0
v445                 0
v446                 0
v447                 0
v448                 0
v449                 0
v450                 1
v451                 0
v452                 0
v453                 0
v454                 0
v455                 0
v456                 0
v457                 0
v458                 0
v459                 0
v460                 0
v461                 0
v462                 1.00000000000001
v463                 0
v464                 0
v465                 0
v466                 0
v467                 0
v468                 0
v469                 1.00000000000001
v470                 0
v471                 0
v472                 0
v473                 0
v474                 0
v475                 0
v476                 0
v477                 0
v478                 0
v479                 0
v480                 0
v481                 0
v482                 0
v483                 0
v484                 0
v485                 0
v486                 0
v487                 0
v488                 0
v489                 0
v490                 1
v491                 0
v492                 0
v493                 0
v494                 0
v495                 0
v496                 0
v497                 0
v498                 0
v499                 0
v500                 0
v501                 0
v502                 0
v503                 0
v504                 0
v505                 0
v506                 0
v507                 0
v508                 0
v509                 0.999999999999969
v510                 0
v511                 0
v512                 0
v513                 0
v514                 1
v515                 0
v516                 0
v517                 0
v518                 0
v519                 0
v520                 0
v521                 0
v522                 0
v523                 0
v524                 0
v525                 0
v526                 0
v527                 0
v528                 0
v529                 0
v530                 0
v531                 0
v532                 0
v533                 0
v534                 0
v535                 0
v536                 0
v537                 0
v538                 0.999999999999985
v539                 0
v540                 0
v541                 0
v542                 0
v543                 0
v544                 0
v545                 0
v546                 0
v547                 1
v548                 0
v549                 0
v550                 0
v551                 0
v552                 0
v553                 0
v554                 0
v555                 0
v556                 0
v557                 0
v558                 0
v559                 0
v560                 0
v561                 0
v562                 0
v563                 0
v564                 0
v565                 0
v566                 0
v567                 0.999999999999994
v568                 0
v569                 0
v570                 0
v571                 0
v572                 0
v573                 0
v574                 0
v575                 0
v576                 0
v577                 0
v578                 0
v579                 0
v580                 0
v581                 0
v582                 0
v583                 0
v584                 0
v585                 1
v586                 0
v587                 0
v588                 0
v589                 0
v590                 0
v591                 0
v592                 0
v593                 0
v594                 0
v595                 0
v596                 0
v597                 1.00000000000001
v598                 0
v599                 0.999999999999996
v600                 0
v601                 0
v602                 0
v603                 0
v604                 0
v605                 0
v606                 0
v607                 0
v608                 0
v609                 0
v610                 0
v611                 0
v612                 0
v613                 0
v614                 0.999999999999997
v615                 0
v616                 0
v617                 0
v618                 0
v619                 0
v620                 0
v621                 0
v622                 0
v623                 0
v624                 0
v625                 0
v626                 0
v627                 0
v628                 0
v629                 0
v630                 0
v631                 0
v632                 0
v633                 0
v634                 0
v635                 0
v636                 0
v637                 0
v638                 0
v639                 0
v640                 0
v641                 0
v642                 1
v643                 0
v644                 0
v645                 0
v646                 0
v647                 0
v648                 0
v649                 0
v650                 0
v651                 0
v652                 0
v653                 0
v654                 0
v655                 1.00000000000001
v656                 0
v657                 0
v658                 0
v659                 0
v660                 0
v661                 1
v662                 0
v663                 0
v664                 0
v665                 0
v666                 0
v667                 0
v668                 0
v669                 0
v670                 0
v671                 0
v672                 0
v673                 0
v674                 0
v675                 0
v676                 0
v677                 0
v678                 0
v679                 1
v680                 0
v681                 0
v682                 0
v683                 0
v684                 0
v685                 0
v686                 0
v687                 0
v688                 0
v689                 0
v690                 0
v691                 0
v692                 0
v693                 0
v694                 0
v695                 0
v696                 0
v697                 0
v698                 0
v699                 0
v700                 1
v701                 0
v702                 0
v703                 0
v704                 0
v705                 0
v706                 0
v707                 0
v708                 0
v709                 0
v710                 0
v711                 0
v712                 0
v713                 0
v714                 0
v715                 0
v716                 0
v717                 0
v718                 0.999999999999999
v719                 0
v720                 0
v721                 0
v722                 0
v723                 0
v724                 0
v725                 0
v726                 0
v727                 0
v728                 0
v729                 0
v730                 0
v731                 0
v732                 0
v733                 0
v734                 0
v735                 0
v736                 0
v737                 0
v738                 0
v739                 0
v740                 0
v741                 0
v742                 0
v743                 0
v744                 0
v745                 1
v746                 0
v747                 0
v748                 0
v749                 0
v750                 0
v751                 0
v752                 0
v753                 0
v754                 0
v755                 0
v756                 0
v757                 0
v758                 0
v759                 0
v760                 0.999999999999996
v761                 0
v762                 0
v763                 0
v764                 0.999999999999986
v765                 0
v766                 0
v767                 0
v768                 0
v769                 0
v770                 0
v771                 0
v772                 0
v773                 0
v774                 0
v775                 0
v776                 0
v777                 0
v778                 0
v779                 0
v780                 0
v781                 0
v782                 0
v783                 0
v784                 0
v785                 0
v786                 0
v787                 0
v788                 0
v789                 0
v790                 0
v791                 0
v792                 0
v793                 0
v794                 0
v795                 0
v796                 0
v797                 0
v798                 1
v799                 0
v800                 0
v801                 0
v802                 0
v803                 0
v804                 0
v805                 0
v806                 1
v807                 0
v808                 0
v809                 0
v810                 0
v811                 0
v812                 0
v813                 0
v814                 0
v815                 0
v816                 0
v817                 1
v818                 0
v819                 0
v820                 0
v821                 0
v822                 0
v823                 0
v824                 0
v825                 0
v826                 0
v827                 0
v828                 0
v829                 0
v830                 0
v831                 0
v832                 0
v833                 0
v834                 0
v835                 0
v836                 0
v837                 0
v838                 0
v839                 0
v840                 0
v841                 1.00000000000001
v842                 0
v843                 0
v844                 0
v845                 0
v846                 0
v847                 0
v848                 0
v849                 0
v850                 0
v851                 0
v852                 1
v853                 0
v854                 0
v855                 0
v856                 0
v857                 1
v858                 0
v859                 0
v860                 0
v861                 0
v862                 0
v863                 0
v864                 0
v865                 0
v866                 0
v867                 0
v868                 0
v869                 0
v870                 0
v871                 0
v872                 0
v873                 0
v874                 0
v875                 0
v876                 0
v877                 0
v878                 0
v879                 0
v880                 0
v881                 0
v882                 0
v883                 1
v884                 0
v885                 0
v886                 0
v887                 0
v888                 0
v889                 0
v890                 0
v891                 0
v892                 0
v893                 0
v894                 1
v895                 0
v896                 0
v897                 0
v898                 0
v899                 0
v900                 0
v901                 0
v902                 0
v903                 0
v904                 0
v905                 0
v906                 0
v907                 0
v908                 0
v909                 0
v910                 0
v911                 0
v912                 0
v913                 0
v914                 0
v915                 0
v916                 0
v917                 0
v918                 0.999999999999996
v919                 0
v920                 0
v921                 0
v922                 0
v923                 1
v924                 0
v925                 0
v926                 0
v927                 0
v928                 0
v929                 0
v930                 0
v931                 0
v932                 0
v933                 0
v934                 0
v935                 0
v936                 0
v937                 0
v938                 0
v939                 0
v940                 0
v941                 0
v942                 0
v943                 1
v944                 0
v945                 0
v946                 0
v947                 0
v948                 0
v949                 0
v950                 0
v951                 0
v952                 0
v953                 0
v954                 0
v955                 0
v956                 0
v957                 0
v958                 0
v959                 0
v960                 0
v961                 0
v962                 0
v963                 1
v964                 0
v965                 0
v966                 0
v967                 0
v968                 0
v969                 0
v970                 0
v971                 0
v972                 0
v973                 0
v974                 0
v975                 0
v976                 0
v977                 0
v978                 0
v979                 0
v980                 1
v981                 0
v982                 0
v983                 0
v984                 0
v985                 0
v986                 0
v987                 0
v988                 0
v989                 0
v990                 0
v991                 0
v992                 0
v993                 0
v994                 0
v995                 0
v996                 0
v997                 0
v998                 0
v999                 0
